NAME 
ROWS
 N  OBJ
 L  R0      
 L  R1      
 E  R2      
 E  R3      
 E  R4      
 E  R5      
 E  R6      
COLUMNS
    MARKER    'MARKER'                 'INTORG'
    I0(3)     OBJ       -72
    I0(3)     R0        194
    I0(3)     R1        53
    I0(3)     R6        1
    I1(4)     OBJ       -6
    I1(4)     R0        -137
    I1(4)     R1        70
    I1(4)     R2        6
    I1(4)     R6        1
    MARKER    'MARKER'                 'INTEND'
    C2(5)     OBJ       -10
    C2(5)     R0        2
    C2(5)     R1        -7
    C2(5)     R2        14
    C2(5)     R4        4
    C2(5)     R5        2
    C3(4)     OBJ       -1
    C3(4)     R0        -10
    C3(4)     R1        1
    C3(4)     R2        4
    C3(4)     R5        5
    C4(4)     OBJ       9
    C4(4)     R0        -1
    C4(4)     R1        -8
    C4(4)     R2        12
    C4(4)     R4        6
    C5(1)     R2        1
    C6(1)     R3        1
    C7(1)     R4        1
    C8(1)     R5        1
    C9(1)     R6        1
RHS
    RHS1      R0        8.1428571428571423e+00
    RHS1      R1        -28.5
    RHS1      R2        57
    RHS1      R3        82
    RHS1      R4        62
    RHS1      R5        97
BOUNDS
 UP BND1      I0(3)     2
 UP BND1      I1(4)     2
ENDATA
